min: c;

c = 3.90764438274672 * u4_t1_h1 + 3.44809174206063 * u4_t1_h2 + 3.1109221117043 * u4_t1_h3 + 2.72915879881116 * u4_t1_h4 + 2.72915879881116 * u4_t10_h4 + 3.32177827458862 * u4_t1_h5 + 3.32177827458862 * u4_t10_h5 + 3.67400916118219 * u4_t1_h6 + 3.67400916118219 * u4_t10_h6 + 4.37250280926239 * u4_t1_h7 + 4.37250280926239 * u4_t10_h7 + 5.50336706107611 * u4_t1_h8 + 5.50336706107611 * u4_t9_h8 + 5.50336706107611 * u4_t10_h8 + 4.581759070143 * u4_t9_h9 + 4.581759070143 * u4_t10_h9 + 5.17093649061197 * u4_t9_h10 + 5.17093649061197 * u4_t10_h10 + 4.1382096664453 * u4_t2_h11 + 4.1382096664453 * u4_t4_h11 + 4.1382096664453 * u4_t9_h11 + 4.1382096664453 * u4_t10_h11 + 6.5197703549867 * u4_t2_h12 + 6.5197703549867 * u4_t3_h12 + 6.5197703549867 * u4_t4_h12 + 6.5197703549867 * u4_t8_h12 + 6.5197703549867 * u4_t9_h12 + 6.5197703549867 * u4_t10_h12 + 4.73900549942509 * u4_t2_h13 + 4.73900549942509 * u4_t3_h13 + 4.73900549942509 * u4_t4_h13 + 4.73900549942509 * u4_t8_h13 + 4.73900549942509 * u4_t9_h13 + 4.97386202874013 * u4_t2_h14 + 4.97386202874013 * u4_t3_h14 + 4.97386202874013 * u4_t4_h14 + 4.97386202874013 * u4_t8_h14 + 4.97386202874013 * u4_t9_h14 + 5.84840614464644 * u4_t2_h15 + 5.84840614464644 * u4_t3_h15 + 5.84840614464644 * u4_t4_h15 + 5.84840614464644 * u4_t8_h15 + 5.84840614464644 * u4_t9_h15 + 5.87615207226162 * u4_t2_h16 + 5.87615207226162 * u4_t3_h16 + 5.87615207226162 * u4_t4_h16 + 5.87615207226162 * u4_t5_h16 + 5.87615207226162 * u4_t8_h16 + 5.87615207226162 * u4_t9_h16 + 6.62374009545657 * u4_t2_h17 + 6.62374009545657 * u4_t3_h17 + 6.62374009545657 * u4_t5_h17 + 6.62374009545657 * u4_t8_h17 + 6.62374009545657 * u4_t9_h17 + 5.98260044018926 * u4_t2_h18 + 5.98260044018926 * u4_t3_h18 + 5.98260044018926 * u4_t5_h18 + 5.98260044018926 * u4_t8_h18 + 5.98260044018926 * u4_t9_h18 + 5.7953605462694 * u4_t2_h19 + 5.7953605462694 * u4_t3_h19 + 5.7953605462694 * u4_t6_h19 + 5.7953605462694 * u4_t8_h19 + 5.7953605462694 * u4_t9_h19 + 5.7415650228133 * u4_t2_h20 + 5.7415650228133 * u4_t6_h20 + 5.7415650228133 * u4_t9_h20 + 5.43088551145452 * u4_t6_h21 + 5.28031490464546 * u4_t6_h22 + 5.28031490464546 * u4_t7_h22 + 4.97947585053491 * u4_t6_h23 + 4.97947585053491 * u4_t7_h23;
0 <= u4_t1_h1 <= 1;
0 <= u4_t1_h2 <= 1;
0 <= u4_t1_h3 <= 1;
0 <= u4_t1_h4 <= 1;
0 <= u4_t1_h5 <= 1;
0 <= u4_t1_h6 <= 1;
0 <= u4_t1_h7 <= 1;
0 <= u4_t1_h8 <= 1;
u4_t1_h1 + u4_t1_h2 + u4_t1_h3 + u4_t1_h4 + u4_t1_h5 + u4_t1_h6 + u4_t1_h7 + u4_t1_h8 = 1;
0 <= u4_t2_h11 <= 1;
0 <= u4_t2_h12 <= 1;
0 <= u4_t2_h13 <= 1;
0 <= u4_t2_h14 <= 1;
0 <= u4_t2_h15 <= 1;
0 <= u4_t2_h16 <= 1;
0 <= u4_t2_h17 <= 1;
0 <= u4_t2_h18 <= 1;
0 <= u4_t2_h19 <= 1;
0 <= u4_t2_h20 <= 1;
u4_t2_h11 + u4_t2_h12 + u4_t2_h13 + u4_t2_h14 + u4_t2_h15 + u4_t2_h16 + u4_t2_h17 + u4_t2_h18 + u4_t2_h19 + u4_t2_h20 = 2;
0 <= u4_t3_h12 <= 1;
0 <= u4_t3_h13 <= 1;
0 <= u4_t3_h14 <= 1;
0 <= u4_t3_h15 <= 1;
0 <= u4_t3_h16 <= 1;
0 <= u4_t3_h17 <= 1;
0 <= u4_t3_h18 <= 1;
0 <= u4_t3_h19 <= 1;
u4_t3_h12 + u4_t3_h13 + u4_t3_h14 + u4_t3_h15 + u4_t3_h16 + u4_t3_h17 + u4_t3_h18 + u4_t3_h19 = 3;
0 <= u4_t4_h11 <= 1;
0 <= u4_t4_h12 <= 1;
0 <= u4_t4_h13 <= 1;
0 <= u4_t4_h14 <= 1;
0 <= u4_t4_h15 <= 1;
0 <= u4_t4_h16 <= 1;
u4_t4_h11 + u4_t4_h12 + u4_t4_h13 + u4_t4_h14 + u4_t4_h15 + u4_t4_h16 = 3;
0 <= u4_t5_h16 <= 1;
0 <= u4_t5_h17 <= 1;
0 <= u4_t5_h18 <= 1;
u4_t5_h16 + u4_t5_h17 + u4_t5_h18 = 1;
0 <= u4_t6_h19 <= 1;
0 <= u4_t6_h20 <= 1;
0 <= u4_t6_h21 <= 1;
0 <= u4_t6_h22 <= 1;
0 <= u4_t6_h23 <= 1;
u4_t6_h19 + u4_t6_h20 + u4_t6_h21 + u4_t6_h22 + u4_t6_h23 = 3;
0 <= u4_t7_h22 <= 1;
0 <= u4_t7_h23 <= 1;
u4_t7_h22 + u4_t7_h23 = 1;
0 <= u4_t8_h12 <= 1;
0 <= u4_t8_h13 <= 1;
0 <= u4_t8_h14 <= 1;
0 <= u4_t8_h15 <= 1;
0 <= u4_t8_h16 <= 1;
0 <= u4_t8_h17 <= 1;
0 <= u4_t8_h18 <= 1;
0 <= u4_t8_h19 <= 1;
u4_t8_h12 + u4_t8_h13 + u4_t8_h14 + u4_t8_h15 + u4_t8_h16 + u4_t8_h17 + u4_t8_h18 + u4_t8_h19 = 2;
0 <= u4_t9_h8 <= 1;
0 <= u4_t9_h9 <= 1;
0 <= u4_t9_h10 <= 1;
0 <= u4_t9_h11 <= 1;
0 <= u4_t9_h12 <= 1;
0 <= u4_t9_h13 <= 1;
0 <= u4_t9_h14 <= 1;
0 <= u4_t9_h15 <= 1;
0 <= u4_t9_h16 <= 1;
0 <= u4_t9_h17 <= 1;
0 <= u4_t9_h18 <= 1;
0 <= u4_t9_h19 <= 1;
0 <= u4_t9_h20 <= 1;
u4_t9_h8 + u4_t9_h9 + u4_t9_h10 + u4_t9_h11 + u4_t9_h12 + u4_t9_h13 + u4_t9_h14 + u4_t9_h15 + u4_t9_h16 + u4_t9_h17 + u4_t9_h18 + u4_t9_h19 + u4_t9_h20 = 2;
0 <= u4_t10_h4 <= 1;
0 <= u4_t10_h5 <= 1;
0 <= u4_t10_h6 <= 1;
0 <= u4_t10_h7 <= 1;
0 <= u4_t10_h8 <= 1;
0 <= u4_t10_h9 <= 1;
0 <= u4_t10_h10 <= 1;
0 <= u4_t10_h11 <= 1;
0 <= u4_t10_h12 <= 1;
u4_t10_h4 + u4_t10_h5 + u4_t10_h6 + u4_t10_h7 + u4_t10_h8 + u4_t10_h9 + u4_t10_h10 + u4_t10_h11 + u4_t10_h12 = 2;
